Route #1: 6 33 1 43 63 16 51
Route #2: 39 31 25 55 18 50 44 3
Route #3: 24 49 23 56 41 42 64 22
Route #4: 21 61 28 62 2
Route #5: 17 40 32 9 12
Route #6: 58 10 38 11 53
Route #7: 8 19 54 59 14 35 7
Route #8: 4 45 29 47 48 30
Route #9: 5 36 60 20 37 15 57 13
Route #10: 27 52 34 46 26
Cost 819